% number of games is 47
num = 47;
cap = 5;
refill = 2;
fun = [-20, -5, 7, -11, 16, -13, -6, 11, 3, -17, 20, -5, 2, -15, 4, -4, -11, -4, -1, 11, 9, 4, 8, 16, -14, 3, -8, -16, -1, 15, -2, 7, 14, 12, -17, 7, 1, 11, 18, 3, -7, -18, -4, -20, -14, -20, 7];
